NAME : sample9
COMMENT : Sample dataset with 9 nodes
COMMENT : Derived from Zainab
TYPE : TSP
DIMENSION : 9
EDGE_WEIGHT_TYPE : EUC_2D
NODE_COORD_SECTION
1 100 200
2 150 250
3 300 150
4 250 120
5 90 95
6 220 130
7 270 270
8 180 210
9 150 170
EOF
